
Value of objective function: 23445.00000000

Actual values of the variables:
T                           23445
T1                          23445
T2                          23445
T3                          23445
T4                          23445
d1                              1
d12                             0
d21                          5111
d23                             1
d24                          3666
Tzk2                            4
Trk2                            0
Tzk1                         5115
x34                             1
Tzk3                        16113
Trk3                         5115
Tz1o1                           3
Trk1                            4
Tzk                         16113
